c "954698.clq"
p edge 200 784
e 1 5
e 1 6
e 1 7
e 1 8
e 1 10
e 1 11
e 1 15
e 1 18
e 1 19
e 1 31
e 1 32
e 1 33
e 1 36
e 1 47
e 1 48
e 1 49
e 1 50
e 1 59
e 1 67
e 1 69
e 1 76
e 1 94
e 1 99
e 1 104
e 1 107
e 1 118
e 1 122
e 1 142
e 1 150
e 1 163
e 1 169
e 1 172
e 1 193
e 2 5
e 2 21
e 2 25
e 2 28
e 2 67
e 2 113
e 2 116
e 3 5
e 3 6
e 3 7
e 3 8
e 3 9
e 3 11
e 3 14
e 3 16
e 3 19
e 3 28
e 3 31
e 3 34
e 3 41
e 3 47
e 3 55
e 3 57
e 3 63
e 3 81
e 3 101
e 3 117
e 3 121
e 3 125
e 3 137
e 3 150
e 3 156
e 3 162
e 3 164
e 3 177
e 3 178
e 4 5
e 4 6
e 4 10
e 4 11
e 4 13
e 4 33
e 4 39
e 4 46
e 4 48
e 4 62
e 4 65
e 4 77
e 4 88
e 4 92
e 4 116
e 4 139
e 4 140
e 4 178
e 5 6
e 5 7
e 5 8
e 5 9
e 5 12
e 5 14
e 5 15
e 5 19
e 5 22
e 5 36
e 5 37
e 5 56
e 5 70
e 5 77
e 5 80
e 5 82
e 5 85
e 5 88
e 5 89
e 5 90
e 5 96
e 5 112
e 5 114
e 5 125
e 5 141
e 5 145
e 5 156
e 5 160
e 5 167
e 5 173
e 5 174
e 5 180
e 5 184
e 6 7
e 6 8
e 6 9
e 6 10
e 6 16
e 6 21
e 6 23
e 6 26
e 6 29
e 6 33
e 6 48
e 6 52
e 6 80
e 6 87
e 6 108
e 6 128
e 6 139
e 6 151
e 6 184
e 6 197
e 6 199
e 7 9
e 7 11
e 7 12
e 7 13
e 7 14
e 7 16
e 7 18
e 7 19
e 7 20
e 7 22
e 7 24
e 7 25
e 7 26
e 7 41
e 7 43
e 7 52
e 7 65
e 7 68
e 7 71
e 7 73
e 7 75
e 7 80
e 7 84
e 7 90
e 7 91
e 7 110
e 7 114
e 7 119
e 7 123
e 7 124
e 7 131
e 7 136
e 7 145
e 7 155
e 7 168
e 7 171
e 7 179
e 7 185
e 7 193
e 7 196
e 8 38
e 8 44
e 8 46
e 8 79
e 8 117
e 8 152
e 8 174
e 8 191
e 9 10
e 9 12
e 9 13
e 9 15
e 9 17
e 9 18
e 9 22
e 9 23
e 9 25
e 9 30
e 9 33
e 9 34
e 9 35
e 9 51
e 9 53
e 9 57
e 9 69
e 9 76
e 9 91
e 9 95
e 9 102
e 9 103
e 9 116
e 9 123
e 9 128
e 9 171
e 9 178
e 9 188
e 9 195
e 10 12
e 10 13
e 10 14
e 10 16
e 10 17
e 10 21
e 10 23
e 10 24
e 10 40
e 10 42
e 10 45
e 10 61
e 10 69
e 10 73
e 10 76
e 10 80
e 10 86
e 10 91
e 10 94
e 10 103
e 10 111
e 10 117
e 10 133
e 10 139
e 10 140
e 10 143
e 10 144
e 10 198
e 11 94
e 11 105
e 11 127
e 12 15
e 12 17
e 12 20
e 12 23
e 12 32
e 12 36
e 12 40
e 12 44
e 12 46
e 12 47
e 12 49
e 12 56
e 12 59
e 12 64
e 12 95
e 12 106
e 12 124
e 12 157
e 12 169
e 12 198
e 13 20
e 13 27
e 13 28
e 13 32
e 13 36
e 13 37
e 13 38
e 13 45
e 13 47
e 13 48
e 13 56
e 13 60
e 13 62
e 13 67
e 13 69
e 13 71
e 13 73
e 13 101
e 13 106
e 13 120
e 13 130
e 13 134
e 13 138
e 13 159
e 13 162
e 13 171
e 13 172
e 13 185
e 14 18
e 14 58
e 14 70
e 14 83
e 14 97
e 14 109
e 14 146
e 15 17
e 15 28
e 15 34
e 15 43
e 15 44
e 15 61
e 15 83
e 15 105
e 15 143
e 15 165
e 15 167
e 15 196
e 15 197
e 16 20
e 16 24
e 16 35
e 16 37
e 16 39
e 16 49
e 16 54
e 16 84
e 16 107
e 16 111
e 16 113
e 16 121
e 16 130
e 16 142
e 16 147
e 16 153
e 16 158
e 16 161
e 16 179
e 16 182
e 16 198
e 17 27
e 17 34
e 17 38
e 17 63
e 17 75
e 17 120
e 17 121
e 17 126
e 17 148
e 17 195
e 18 27
e 18 31
e 18 35
e 18 40
e 18 100
e 18 124
e 18 130
e 18 133
e 18 140
e 18 165
e 18 175
e 18 177
e 18 193
e 19 21
e 19 37
e 19 70
e 19 98
e 19 140
e 19 161
e 20 26
e 20 30
e 20 44
e 20 50
e 20 54
e 20 55
e 20 87
e 20 92
e 20 98
e 20 99
e 20 104
e 20 111
e 20 112
e 20 115
e 20 116
e 20 122
e 20 132
e 20 164
e 20 189
e 21 22
e 21 26
e 21 29
e 21 59
e 21 62
e 21 78
e 21 95
e 21 131
e 21 137
e 21 146
e 21 153
e 21 154
e 21 164
e 21 186
e 21 195
e 22 24
e 22 25
e 22 27
e 22 38
e 22 61
e 22 67
e 22 71
e 22 78
e 22 99
e 22 100
e 22 103
e 22 115
e 22 167
e 22 194
e 23 43
e 23 75
e 23 83
e 23 103
e 23 133
e 23 141
e 23 154
e 23 170
e 24 29
e 24 32
e 24 54
e 24 59
e 24 60
e 24 66
e 24 85
e 24 127
e 24 168
e 24 173
e 24 175
e 24 195
e 25 30
e 25 40
e 25 41
e 25 42
e 25 50
e 25 105
e 25 118
e 25 121
e 25 159
e 25 162
e 25 168
e 25 181
e 26 29
e 26 30
e 26 57
e 26 79
e 26 88
e 26 107
e 26 119
e 26 143
e 26 152
e 26 184
e 26 186
e 26 192
e 27 43
e 27 66
e 27 72
e 27 84
e 27 112
e 27 129
e 27 154
e 27 160
e 27 176
e 28 85
e 28 104
e 28 134
e 29 31
e 29 42
e 29 74
e 29 76
e 29 156
e 29 193
e 30 35
e 30 51
e 30 74
e 30 115
e 30 138
e 30 155
e 30 196
e 31 46
e 31 63
e 31 101
e 32 53
e 32 60
e 32 83
e 32 150
e 33 63
e 33 65
e 33 68
e 33 81
e 33 85
e 33 96
e 33 102
e 33 144
e 33 147
e 33 166
e 34 39
e 34 42
e 34 52
e 34 78
e 34 84
e 34 96
e 34 119
e 34 137
e 35 39
e 35 62
e 35 183
e 36 45
e 36 55
e 36 58
e 36 64
e 36 68
e 36 77
e 36 96
e 36 123
e 36 151
e 37 41
e 37 51
e 37 64
e 37 79
e 37 108
e 37 117
e 37 132
e 37 192
e 38 45
e 38 60
e 38 73
e 38 100
e 38 112
e 38 124
e 38 137
e 39 51
e 39 149
e 40 92
e 40 166
e 41 54
e 41 163
e 42 70
e 42 74
e 42 91
e 42 102
e 42 114
e 42 127
e 42 156
e 43 50
e 43 56
e 43 66
e 43 77
e 43 86
e 43 88
e 43 89
e 43 93
e 43 160
e 43 189
e 44 49
e 44 53
e 44 165
e 44 168
e 44 169
e 44 183
e 44 199
e 45 68
e 45 151
e 45 157
e 45 182
e 46 53
e 46 113
e 46 177
e 46 188
e 47 58
e 47 108
e 47 126
e 47 182
e 48 58
e 48 110
e 48 174
e 48 189
e 49 110
e 49 119
e 50 71
e 50 90
e 50 131
e 51 52
e 51 55
e 51 66
e 51 86
e 51 154
e 51 164
e 52 93
e 52 99
e 52 128
e 52 146
e 52 155
e 53 81
e 53 82
e 53 86
e 53 98
e 53 114
e 53 126
e 53 133
e 53 138
e 53 159
e 53 175
e 54 64
e 54 75
e 54 107
e 54 129
e 54 145
e 54 184
e 55 57
e 55 61
e 55 65
e 55 72
e 55 94
e 55 118
e 55 134
e 55 135
e 55 153
e 55 172
e 56 89
e 56 132
e 57 89
e 57 97
e 57 149
e 58 78
e 58 122
e 58 128
e 58 157
e 59 95
e 61 72
e 61 147
e 62 81
e 62 87
e 62 93
e 62 171
e 63 145
e 64 136
e 64 159
e 66 74
e 66 101
e 66 141
e 66 148
e 67 87
e 68 148
e 69 100
e 70 82
e 70 179
e 71 72
e 71 97
e 71 106
e 72 118
e 72 127
e 72 161
e 72 192
e 73 92
e 73 93
e 73 98
e 73 146
e 73 173
e 76 79
e 76 105
e 77 135
e 77 157
e 78 125
e 78 126
e 78 144
e 79 90
e 79 176
e 79 185
e 80 82
e 80 167
e 80 190
e 81 106
e 81 153
e 81 155
e 81 166
e 81 188
e 82 108
e 82 158
e 82 186
e 84 109
e 84 131
e 85 110
e 85 113
e 85 190
e 87 97
e 88 104
e 89 191
e 90 109
e 90 120
e 90 163
e 90 181
e 91 190
e 92 115
e 93 143
e 93 148
e 93 185
e 94 194
e 94 199
e 95 132
e 95 134
e 96 135
e 96 158
e 97 102
e 98 150
e 98 170
e 98 180
e 99 136
e 99 139
e 100 135
e 102 111
e 103 123
e 105 120
e 105 122
e 105 170
e 105 180
e 105 188
e 106 129
e 107 109
e 107 138
e 107 152
e 107 187
e 108 182
e 109 149
e 109 199
e 109 200
e 111 172
e 112 165
e 112 200
e 113 189
e 113 196
e 114 147
e 114 197
e 115 149
e 115 179
e 115 187
e 115 191
e 116 125
e 116 130
e 118 136
e 118 142
e 118 160
e 118 177
e 118 186
e 118 190
e 119 178
e 120 152
e 121 141
e 121 169
e 124 129
e 125 192
e 126 142
e 126 162
e 126 174
e 127 158
e 127 161
e 133 200
e 134 187
e 136 163
e 136 181
e 137 151
e 140 144
e 140 180
e 140 183
e 141 181
e 143 200
e 144 176
e 146 170
e 146 198
e 153 197
e 154 173
e 154 187
e 158 191
e 158 194
e 164 166
e 169 175
e 173 194
e 174 176
e 178 183
